82
Geometry transcribed from supplied image
H   0.54493900  1.65317100 -1.57857200
C   1.44312600  1.14533200 -1.24106800
C   2.41258300  1.82931300 -0.52555100
C   1.64754800 -0.19745400 -1.53552800
C   3.58009200  1.20801700 -0.06338800
H   2.27484600  2.88487100 -0.30802400
C   2.79803700 -0.83809600 -1.09452300
H   0.92096400 -0.75518600 -2.11750300
C   3.75209400 -0.15494900 -0.33328400
H   2.93603700 -1.86340800 -1.38703400
B   4.65803400  2.07834600  0.70628100
H   5.30273000  2.80509400 -0.01905300
H   4.28908700  2.62773800  1.70653800
B   5.44364000  0.22670300  1.51066700
C   6.79547200  0.15537500  2.42979800
H   5.72734400  1.33858100  0.94220500
C   6.86536900 -0.11046200  3.83227400
C   7.98559300  0.62300900  1.84017500
C   8.09641700  0.04863600  4.49025900
C   9.20046100  0.74973700  2.49693400
H   8.13614400 -0.12368700  5.55592800
C   9.25919400  0.44364000  3.84648900
H  10.07544000  1.10754400  1.96347700
H  10.18399200  0.54430000  4.40611000
H   4.44937400  0.22560800  2.13651200
H   7.96260200  0.93157000  0.80133400
C   4.77923500 -2.24044600  0.80016300
C   6.05051600 -0.84993500 -1.04796900
C   6.16123700 -2.80764300  1.16511100
C   7.33109600 -1.59125000 -0.62913800
C   7.08497400 -2.96626900 -0.03068100
H   5.99818400 -3.77050400  1.65752800
H   6.64616300 -2.15984200  1.89478000
H   7.96358200 -1.66009400 -1.52038900
H   7.88253700 -0.99688000  0.09881000
H   6.66540700 -3.65872600 -0.76959000
H   8.03630500 -3.39879500  0.29369700
C   5.82187700 -1.77405400  5.40535600
C   5.03651900  0.66525200  5.32681600
C   4.39177700 -2.16733000  5.82905600
C   3.64966700  0.18996600  5.79609400
C   3.69109600 -1.08185400  6.63076500
H   4.43879100 -3.10542000  6.39344500
H   3.80622900 -2.36677900  4.92409800
H   3.17323400  1.00611700  6.35100300
H   3.03829500  0.00549600  4.90381600
H   4.21173700 -0.91000400  7.58075600
H   2.67439700 -1.39704800  6.88853000
N   5.71993000 -0.48733200  4.63365900
N   5.01763500 -0.81294000  0.15612000
C   4.79936100  1.81604300  4.34556500
H   5.73070200  2.23350100  3.95577300
H   4.18891400  1.50118000  3.50421100
H   4.26694600  2.61822700  4.86481900
C   5.80455600  1.28506300  6.52132100
H   6.84171800  1.50468600  6.25810800
H   5.33118600  2.23463900  6.78788800
H   5.79427700  0.66989300  7.42094700
C   6.74014300 -1.81226000  6.66143700
H   6.63539900 -0.95625700  7.32233500
H   6.49549600 -2.70653700  7.24378000
H   7.79257900 -1.90043200  6.38317400
C   6.34508800 -2.89725000  4.50405400
H   5.64938900 -3.11880700  3.69931500
H   7.32033200 -2.65485300  4.07419700
H   6.46180300 -3.80571900  5.10299000
C   3.90539900 -2.10307600  2.05611500
H   3.64022700 -3.11344000  2.38456400
H   4.39897400 -1.59179400  2.88032600
H   2.97690900 -1.57479100  1.82238400
C   4.05071900 -3.32091300 -0.04139900
H   2.96869900 -3.20363500  0.00119100
H   4.35423200 -3.40966300 -1.07878100
H   4.27764300 -4.27896600  0.43431600
C   6.41726900  0.57483200 -1.48388900
H   7.14843500  0.49207900 -2.29222100
H   5.55146700  1.11692600 -1.86620200
H   6.86878900  1.17709100 -0.70219800
C   5.50914000 -1.51096800 -2.33306400
H   6.26911800 -1.36130400 -3.10394800
H   5.35715400 -2.58453600 -2.26048200
H   4.59399200 -1.04123000 -2.69014000
