# Automatically generated ORCA input

# Number of cores
%pal nprocs 1 end
# RAM per core
%maxcore 8192

! HF 
! freq 


%Output
  JSONPropFile True
End


*xyz 0 1 
H        -3.92130661      2.46304297      0.00000000
H        -4.44494329      2.82629413     -0.05876398
*

